rc101_2
0 85 96 61 69 89 56 25 29 24 23 28 30 53 26 3 54 27 62 79 64 92 14 18 21 22 19 20 52 2 16 17 15 58 87 103 74 60 73 105 75 7 51 1 6 10 8 50 9 11 13 12 84 65 83 78 93 0 95 71 70 88 104 57 91 63 80 102 2 82 81 94 68 90 67 55 37 4 35 38 39 33 34 32 31 36 72 100 97 99 0 86 59 66 101 76 98 77 46 47 44 42 40 5 49 45 48 43 41 0